data/instances/vrp_files/train_67.vrp
NAME : 67
COMMENT : Generated instance No. 67
TYPE : CVRP
DIMENSION : 21
EDGE_WEIGHT_TYPE : EUC_2D
CAPACITY : 30
NODE_COORD_SECTION
 1 430 304
 2 285 91
 3 314 43
 4 780 398
 5 443 893
 6 658 8
 7 943 237
 8 107 768
 9 500 433
 10 249 547
 11 274 901
 12 215 884
 13 559 828
 14 712 696
 15 324 233
 16 210 857
 17 820 440
 18 132 382
 19 619 454
 20 780 997
 21 191 459
DEMAND_SECTION
1 0
2 9
3 7
4 10
5 3
6 5
7 4
8 7
9 9
10 2
11 8
12 9
13 10
14 10
15 9
16 10
17 7
18 9
19 9
20 3
21 4
DEPOT_SECTION
 1
 -1
EOF